33D32945 STP File, STP Format Version 1.0

SECTION Comment
Name    "i080-342"
Creator "Cees Duin"
Remark  "Incidence graph"
END

SECTION Graph
Nodes 80
Edges 632
E 1 7 298
E 1 9 296
E 1 11 300
E 1 13 301
E 1 14 293
E 1 15 310
E 1 34 192
E 1 35 199
E 1 40 192
E 1 43 199
E 1 50 201
E 1 52 195
E 1 53 188
E 1 55 206
E 1 59 195
E 1 60 193
E 1 64 212
E 1 65 200
E 1 67 196
E 1 73 207
E 1 74 195
E 2 6 303
E 2 7 305
E 2 14 294
E 2 18 296
E 2 20 303
E 2 23 203
E 2 25 201
E 2 28 204
E 2 29 200
E 2 30 197
E 2 31 196
E 2 39 203
E 2 44 199
E 2 47 197
E 2 50 204
E 2 63 201
E 2 68 205
E 2 75 197
E 2 76 198
E 3 8 291
E 3 14 309
E 3 17 302
E 3 18 296
E 3 21 202
E 3 37 201
E 3 47 196
E 3 48 207
E 3 51 196
E 3 55 209
E 3 58 190
E 3 60 201
E 3 65 196
E 3 67 195
E 3 72 197
E 3 73 199
E 3 74 202
E 3 76 195
E 4 6 295
E 4 11 302
E 4 15 304
E 4 21 204
E 4 22 195
E 4 24 202
E 4 37 199
E 4 47 202
E 4 49 204
E 4 53 197
E 4 66 201
E 4 67 204
E 4 68 192
E 4 71 198
E 4 74 194
E 4 76 197
E 4 77 205
E 4 79 199
E 4 80 201
E 5 11 299
E 5 15 300
E 5 18 301
E 5 20 294
E 5 24 208
E 5 43 201
E 5 53 200
E 5 57 192
E 5 67 203
E 5 72 206
E 6 7 301
E 6 13 294
E 6 15 303
E 6 19 302
E 6 22 200
E 6 25 197
E 6 44 200
E 6 66 204
E 6 68 198
E 7 8 302
E 7 26 204
E 7 28 197
E 7 31 202
E 7 32 204
E 7 36 197
E 7 39 198
E 7 45 195
E 7 49 202
E 7 51 199
E 7 53 197
E 7 60 206
E 7 66 200
E 7 67 200
E 7 70 198
E 7 74 201
E 7 78 196
E 8 11 297
E 8 13 299
E 8 14 300
E 8 21 210
E 8 23 195
E 8 29 201
E 8 42 198
E 8 49 202
E 8 50 207
E 8 51 204
E 8 57 198
E 8 61 199
E 8 66 193
E 8 72 196
E 8 74 190
E 9 10 305
E 9 13 297
E 9 18 300
E 9 20 297
E 9 22 192
E 9 27 194
E 9 28 206
E 9 36 208
E 9 38 192
E 9 41 198
E 9 49 204
E 9 50 204
E 9 59 196
E 9 67 201
E 9 70 196
E 9 71 196
E 9 72 202
E 10 14 300
E 10 15 301
E 10 16 295
E 10 18 302
E 10 19 295
E 10 20 299
E 10 22 206
E 10 33 196
E 10 39 200
E 10 41 198
E 10 54 205
E 10 56 208
E 10 61 195
E 10 70 205
E 10 74 200
E 10 77 192
E 10 78 199
E 11 12 308
E 11 14 295
E 11 33 201
E 11 37 203
E 11 39 199
E 11 43 205
E 11 45 195
E 11 47 198
E 11 59 204
E 11 66 187
E 11 80 200
E 12 13 298
E 12 25 199
E 12 29 203
E 12 32 196
E 12 34 192
E 12 41 204
E 12 46 197
E 12 50 203
E 12 54 195
E 13 14 297
E 13 15 302
E 13 21 199
E 13 22 198
E 13 26 203
E 13 30 201
E 13 33 201
E 13 37 195
E 13 40 192
E 13 47 200
E 13 48 192
E 13 51 204
E 13 60 204
E 13 63 207
E 13 65 204
E 13 67 202
E 13 69 196
E 13 75 197
E 13 76 196
E 14 16 303
E 14 19 290
E 14 20 303
E 14 23 198
E 14 24 200
E 14 27 200
E 14 37 210
E 14 39 201
E 14 47 197
E 14 48 194
E 14 52 203
E 14 58 197
E 14 62 192
E 14 64 198
E 14 65 189
E 14 71 196
E 14 77 197
E 14 78 195
E 14 79 204
E 15 27 208
E 15 29 204
E 15 38 202
E 15 39 195
E 15 40 200
E 15 42 212
E 15 43 206
E 15 59 201
E 15 64 198
E 15 65 207
E 15 69 207
E 15 71 191
E 16 21 200
E 16 22 203
E 16 29 193
E 16 46 206
E 16 47 197
E 16 48 202
E 16 54 201
E 16 56 197
E 16 65 194
E 16 76 192
E 16 77 194
E 16 80 194
E 17 20 302
E 17 22 209
E 17 23 203
E 17 24 207
E 17 31 192
E 17 38 199
E 17 40 203
E 17 43 200
E 17 57 201
E 17 61 202
E 17 67 196
E 17 73 202
E 17 75 202
E 17 76 202
E 18 28 202
E 18 34 204
E 18 40 205
E 18 42 194
E 18 48 204
E 18 49 195
E 18 52 205
E 18 56 203
E 18 62 204
E 18 72 199
E 18 80 199
E 19 25 205
E 19 27 200
E 19 42 191
E 19 49 199
E 19 53 195
E 19 68 200
E 20 25 203
E 20 37 197
E 20 38 201
E 20 40 196
E 20 42 201
E 20 54 192
E 20 57 205
E 20 61 194
E 20 78 205
E 21 23 103
E 21 24 94
E 21 28 97
E 21 40 93
E 21 41 93
E 21 53 93
E 21 54 101
E 21 56 92
E 21 58 100
E 21 66 96
E 21 75 105
E 22 25 108
E 22 28 98
E 22 30 96
E 22 35 93
E 22 38 97
E 22 45 97
E 22 47 100
E 22 55 90
E 22 63 96
E 22 71 91
E 22 74 106
E 23 24 93
E 23 43 103
E 23 52 98
E 23 62 100
E 23 65 102
E 23 66 95
E 23 67 93
E 23 71 102
E 23 72 100
E 24 25 94
E 24 33 102
E 24 35 98
E 24 47 104
E 24 50 102
E 24 62 94
E 24 77 95
E 25 33 96
E 25 34 95
E 25 42 88
E 25 44 106
E 25 45 97
E 25 52 96
E 25 56 93
E 25 60 94
E 25 64 102
E 25 67 95
E 25 74 96
E 25 75 101
E 26 34 94
E 26 42 100
E 26 43 96
E 26 45 93
E 26 56 100
E 26 63 100
E 26 69 94
E 26 71 106
E 27 29 97
E 27 30 97
E 27 31 95
E 27 33 102
E 27 38 100
E 27 40 95
E 27 43 104
E 27 49 100
E 27 52 96
E 27 59 101
E 27 71 105
E 28 45 99
E 28 48 92
E 28 51 105
E 28 58 97
E 28 63 96
E 28 66 96
E 28 77 97
E 29 30 107
E 29 35 92
E 29 48 93
E 29 51 95
E 29 60 107
E 29 72 98
E 29 74 104
E 29 75 99
E 30 31 100
E 30 33 101
E 30 42 94
E 30 48 104
E 30 55 101
E 30 62 103
E 30 75 93
E 30 78 105
E 31 36 103
E 31 37 97
E 31 42 98
E 31 62 95
E 31 63 92
E 31 64 105
E 31 67 94
E 31 72 93
E 31 73 104
E 31 74 96
E 32 34 105
E 32 39 98
E 32 48 99
E 32 60 100
E 32 69 103
E 32 74 90
E 33 34 99
E 33 38 110
E 33 40 98
E 33 43 103
E 33 50 103
E 33 51 104
E 33 54 95
E 33 63 97
E 33 66 98
E 33 67 93
E 33 77 100
E 34 40 104
E 34 44 102
E 34 46 93
E 34 49 95
E 34 52 101
E 34 53 96
E 34 55 96
E 34 57 102
E 34 67 95
E 34 68 93
E 34 70 101
E 34 76 103
E 35 36 102
E 35 39 105
E 35 41 96
E 35 42 109
E 35 44 99
E 35 48 100
E 35 53 99
E 35 56 97
E 35 59 99
E 35 60 99
E 35 61 96
E 35 63 95
E 35 78 93
E 36 37 96
E 36 45 94
E 36 50 96
E 36 59 95
E 36 65 94
E 36 76 96
E 37 39 99
E 37 44 97
E 37 56 100
E 37 60 101
E 37 61 103
E 37 62 93
E 37 68 103
E 37 73 93
E 37 74 100
E 37 78 100
E 38 41 107
E 38 43 102
E 38 54 103
E 38 56 95
E 38 61 99
E 38 65 100
E 38 73 98
E 39 44 103
E 39 51 100
E 39 59 98
E 39 61 101
E 39 72 90
E 39 76 105
E 40 42 103
E 40 45 103
E 40 47 106
E 40 50 90
E 40 63 93
E 40 68 99
E 40 69 97
E 40 72 108
E 40 75 109
E 40 76 98
E 40 77 102
E 41 43 96
E 41 50 103
E 41 51 99
E 41 59 99
E 41 70 104
E 41 72 106
E 41 77 103
E 41 78 101
E 42 43 108
E 42 47 106
E 42 48 99
E 42 49 101
E 42 51 95
E 42 59 103
E 42 61 93
E 42 62 99
E 42 69 107
E 42 76 102
E 42 80 100
E 43 46 97
E 43 51 107
E 43 54 99
E 43 59 104
E 43 60 106
E 43 61 95
E 43 66 105
E 43 70 100
E 43 74 109
E 44 49 92
E 44 52 97
E 44 68 98
E 44 74 100
E 44 75 96
E 44 80 99
E 45 66 96
E 45 68 100
E 45 71 110
E 46 48 99
E 46 50 98
E 46 54 95
E 46 56 97
E 46 60 107
E 46 63 93
E 46 65 94
E 46 72 97
E 46 73 96
E 46 74 98
E 47 50 106
E 47 54 100
E 47 56 92
E 47 57 99
E 47 66 94
E 47 69 103
E 47 75 95
E 47 78 102
E 48 52 109
E 48 54 103
E 48 56 97
E 48 57 101
E 48 58 100
E 48 60 100
E 48 62 97
E 48 64 90
E 48 65 96
E 48 67 99
E 48 72 99
E 49 53 99
E 49 64 95
E 49 66 102
E 49 69 108
E 49 72 97
E 49 73 100
E 49 74 101
E 49 78 99
E 50 52 96
E 50 55 93
E 50 58 91
E 50 65 98
E 50 71 105
E 51 55 100
E 51 57 99
E 51 61 111
E 51 64 108
E 51 67 101
E 51 69 92
E 51 70 98
E 51 72 106
E 51 75 107
E 52 66 111
E 52 69 93
E 52 74 93
E 52 76 99
E 53 55 100
E 53 59 107
E 53 60 94
E 53 65 94
E 53 68 94
E 53 77 92
E 54 67 108
E 54 73 102
E 54 78 97
E 54 80 100
E 55 58 103
E 55 59 99
E 55 61 94
E 55 73 88
E 56 60 109
E 56 62 86
E 56 65 89
E 56 68 103
E 57 60 98
E 57 69 100
E 57 75 100
E 57 77 97
E 57 79 102
E 58 64 93
E 58 66 102
E 58 67 107
E 58 80 88
E 59 61 95
E 59 67 97
E 59 76 101
E 60 61 100
E 60 64 95
E 60 65 102
E 60 66 92
E 60 71 91
E 60 75 94
E 60 77 96
E 60 79 98
E 61 66 97
E 61 68 104
E 62 64 96
E 62 66 105
E 62 72 100
E 62 75 97
E 62 78 104
E 63 76 104
E 63 79 103
E 64 66 99
E 64 69 96
E 64 75 95
E 65 67 105
E 65 71 100
E 65 74 97
E 65 78 102
E 66 77 102
E 66 79 102
E 67 68 98
E 70 76 102
E 70 77 103
E 71 72 99
E 71 76 99
E 71 77 96
E 71 78 91
E 73 74 101
E 73 76 99
E 73 79 100
E 73 80 103
E 75 80 94
E 76 77 99
E 76 80 92
E 77 78 101
E 79 80 95
END

SECTION Terminals
Terminals 20
T 1
T 2
T 3
T 4
T 5
T 6
T 7
T 8
T 9
T 10
T 11
T 12
T 13
T 14
T 15
T 16
T 17
T 18
T 19
T 20
END

EOF
